words_hard_train/6686.qaiger
aag 100 16 0 1 84
2
4
12
16
20
22
28
38
42
104
126
138
148
156
172
188
200
6 3 4
8 2 5
10 7 9
14 12 4
18 16 4
24 21 23
26 25 4
30 27 29
32 31 4
34 19 33
36 15 34
40 36 39
44 40 43
46 44 4
48 40 4
50 49 42
52 47 51
54 37 38
56 55 41
58 35 13
60 34 12
62 59 61
64 33 16
66 32 17
68 65 67
70 26 28
72 71 31
74 23 5
76 22 4
78 75 77
80 78 20
82 72 80
84 68 83
86 62 84
88 56 87
90 52 88
92 53 89
94 91 93
96 11 95
98 10 94
100 97 99
102 45 4
106 103 104
108 102 105
110 107 109
112 88 5
114 113 93
116 111 115
118 110 114
120 117 119
122 63 85
124 123 87
128 125 126
130 124 127
132 129 131
134 73 81
136 135 83
140 137 139
142 136 138
144 141 143
146 25 81
150 147 149
152 146 148
154 151 153
158 157 20
160 156 21
162 159 161
164 154 162
166 144 164
168 69 82
170 169 85
174 171 172
176 170 173
178 175 177
180 166 178
182 132 180
184 57 86
186 185 89
190 186 189
192 187 188
194 191 193
196 182 195
198 121 196
200 101 198
i0 2 y2[6]
i1 1 x2[7]
i2 1 x2[4]
i3 1 x2[3]
i4 1 x2[0]
i5 1 x2[1]
i6 1 x2[2]
i7 1 x2[5]
i8 1 x2[6]
i9 2 y2[7]
i10 2 y2[4]
i11 2 y2[2]
i12 2 y2[1]
i13 2 y2[0]
i14 2 y2[3]
i15 2 y2[5]
o0 bool[0]
c
simplified
  ==
    invert
      2 y2
    subtract
      abs
        1 x2
      abs
        -39
