words_hard_train/6686.qaiger.qdimacs
p cnf 100 253
a 2 6 8 10 11 14 19 21 0
e 1 3 4 5 7 9 12 13 15 16 17 18 20 22 23 24 25 26 27 28 29 30 31 32 33 34 35 36 37 38 39 40 41 42 43 44 45 46 47 48 49 50 51 52 53 54 55 56 57 58 59 60 61 62 63 64 65 66 67 68 69 70 71 72 73 74 75 76 77 78 79 80 81 82 83 84 85 86 87 88 89 90 91 92 93 94 95 96 97 98 99 100 0
1 -2 3 0
-1 -3 0
2 -3 0
-1 2 4 0
1 -4 0
-2 -4 0
3 4 5 0
-3 -5 0
-4 -5 0
-6 -2 7 0
6 -7 0
2 -7 0
-8 -2 9 0
8 -9 0
2 -9 0
10 11 12 0
-10 -12 0
-11 -12 0
12 -2 13 0
-12 -13 0
2 -13 0
13 14 15 0
-13 -15 0
-14 -15 0
15 -2 16 0
-15 -16 0
2 -16 0
9 16 17 0
-9 -17 0
-16 -17 0
7 -17 18 0
-7 -18 0
17 -18 0
-18 19 20 0
18 -20 0
-19 -20 0
-20 21 22 0
20 -22 0
-21 -22 0
-22 -2 23 0
22 -23 0
2 -23 0
-20 -2 24 0
20 -24 0
2 -24 0
24 -21 25 0
-24 -25 0
21 -25 0
23 25 26 0
-23 -26 0
-25 -26 0
18 -19 27 0
-18 -27 0
19 -27 0
27 20 28 0
-27 -28 0
-20 -28 0
17 6 29 0
-17 -29 0
-6 -29 0
-17 -6 30 0
17 -30 0
6 -30 0
29 30 31 0
-29 -31 0
-30 -31 0
16 -8 32 0
-16 -32 0
8 -32 0
-16 8 33 0
16 -33 0
-8 -33 0
32 33 34 0
-32 -34 0
-33 -34 0
-13 -14 35 0
13 -35 0
14 -35 0
35 15 36 0
-35 -36 0
-15 -36 0
11 2 37 0
-11 -37 0
-2 -37 0
-11 -2 38 0
11 -38 0
2 -38 0
37 38 39 0
-37 -39 0
-38 -39 0
-39 -10 40 0
39 -40 0
10 -40 0
-36 -40 41 0
36 -41 0
40 -41 0
-34 41 42 0
34 -42 0
-41 -42 0
-31 -42 43 0
31 -43 0
42 -43 0
-28 43 44 0
28 -44 0
-43 -44 0
-26 -44 45 0
26 -45 0
44 -45 0
26 44 46 0
-26 -46 0
-44 -46 0
45 46 47 0
-45 -47 0
-46 -47 0
5 47 48 0
-5 -48 0
-47 -48 0
-5 -47 49 0
5 -49 0
47 -49 0
48 49 50 0
-48 -50 0
-49 -50 0
22 -2 51 0
-22 -51 0
2 -51 0
51 -52 53 0
-51 -53 0
52 -53 0
-51 52 54 0
51 -54 0
-52 -54 0
53 54 55 0
-53 -55 0
-54 -55 0
-44 2 56 0
44 -56 0
-2 -56 0
56 46 57 0
-56 -57 0
-46 -57 0
55 57 58 0
-55 -58 0
-57 -58 0
-55 -57 59 0
55 -59 0
57 -59 0
58 59 60 0
-58 -60 0
-59 -60 0
31 42 61 0
-31 -61 0
-42 -61 0
61 43 62 0
-61 -62 0
-43 -62 0
62 -63 64 0
-62 -64 0
63 -64 0
-62 63 65 0
62 -65 0
-63 -65 0
64 65 66 0
-64 -66 0
-65 -66 0
36 40 67 0
-36 -67 0
-40 -67 0
67 41 68 0
-67 -68 0
-41 -68 0
68 69 70 0
-68 -70 0
-69 -70 0
-68 -69 71 0
68 -71 0
69 -71 0
70 71 72 0
-70 -72 0
-71 -72 0
12 40 73 0
-12 -73 0
-40 -73 0
73 74 75 0
-73 -75 0
-74 -75 0
-73 -74 76 0
73 -76 0
74 -76 0
75 76 77 0
-75 -77 0
-76 -77 0
78 -10 79 0
-78 -79 0
10 -79 0
-78 10 80 0
78 -80 0
-10 -80 0
79 80 81 0
-79 -81 0
-80 -81 0
-77 -81 82 0
77 -82 0
81 -82 0
-72 -82 83 0
72 -83 0
82 -83 0
34 -41 84 0
-34 -84 0
41 -84 0
84 42 85 0
-84 -85 0
-42 -85 0
85 -86 87 0
-85 -87 0
86 -87 0
-85 86 88 0
85 -88 0
-86 -88 0
87 88 89 0
-87 -89 0
-88 -89 0
-83 -89 90 0
83 -90 0
89 -90 0
-66 -90 91 0
66 -91 0
90 -91 0
28 -43 92 0
-28 -92 0
43 -92 0
92 44 93 0
-92 -93 0
-44 -93 0
-93 94 95 0
93 -95 0
-94 -95 0
93 -94 96 0
-93 -96 0
94 -96 0
95 96 97 0
-95 -97 0
-96 -97 0
-91 97 98 0
91 -98 0
-97 -98 0
60 -98 99 0
-60 -99 0
98 -99 0
50 -99 100 0
-50 -100 0
99 -100 0
100 0
